letting initialStacks = [9, 6, 38, 25, 47, 44, 41, 45, 31, 13, 20, 29, 27, 35, 23, 33, 7, 50, 19, 3, 39, 48, 43, 4, 42, 32, 22, 28, 26, 11, 15, 36, 34, 17, 24, 40, 21, 14, 46, 12, 10, 49, 5, 37, 51, 30, 18, 8, 16, 1, 2]
